sat
((rprim_1_1 11))
((rprim_1_2 16))
((rprim_1_3 13))
((rprim_1_4 12))
((rprim_1_5 20))
((rprim_1_6 7))
((rprim_1_7 10))
((rprim_1_8 1))
((rprim_1_9 3))
((rprim_1_10 14))
((rprim_1_11 1))
((rprim_1_12 18))
((rprim_1_13 1))
((rprim_1_14 17))
((rprim_1_15 20))
((rprim_1_16 20))
((rprim_1_17 20))
((rprim_1_18 1))
((rprim_1_19 18))
((rprim_1_20 14))
((rprim_1_21 1))
((rprim_1_22 1))
((rprim_1_23 18))
((rprim_1_24 1))
((rprim_1_25 1))
((rcost_1_1 3.0))
((rcost_1_2 4.0))
((rcost_1_3 3.0))
((rcost_1_4 3.0))
((rcost_1_5 4.0))
((rcost_1_6 3.0))
((rcost_1_7 3.0))
((rcost_1_8 0.0))
((rcost_1_9 2.0))
((rcost_1_10 4.0))
((rcost_1_11 0.0))
((rcost_1_12 4.0))
((rcost_1_13 0.0))
((rcost_1_14 4.0))
((rcost_1_15 4.0))
((rcost_1_16 4.0))
((rcost_1_17 4.0))
((rcost_1_18 0.0))
((rcost_1_19 4.0))
((rcost_1_20 4.0))
((rcost_1_21 0.0))
((rcost_1_22 0.0))
((rcost_1_23 4.0))
((rcost_1_24 0.0))
((rcost_1_25 0.0))
((rx_1_1 11))
((ry_1_1 2))
((rx_1_2 11))
((ry_1_2 4))
((rx_1_3 9))
((ry_1_3 2))
((rx_1_4 9))
((ry_1_4 0))
((rx_1_5 7))
((ry_1_5 0))
((rx_1_6 4))
((ry_1_6 0))
((rx_1_7 3))
((ry_1_7 1))
((rx_1_8 5))
((ry_1_8 1))
((rx_1_9 5))
((ry_1_9 1))
((rx_1_10 5))
((ry_1_10 0))
((rx_1_11 7))
((ry_1_11 2))
((rx_1_12 7))
((ry_1_12 2))
((rx_1_13 10))
((ry_1_13 2))
((rx_1_14 10))
((ry_1_14 2))
((rx_1_15 12))
((ry_1_15 0))
((rx_1_16 9))
((ry_1_16 0))
((rx_1_17 6))
((ry_1_17 0))
((rx_1_18 3))
((ry_1_18 0))
((rx_1_19 3))
((ry_1_19 0))
((rx_1_20 6))
((ry_1_20 0))
((rx_1_21 8))
((ry_1_21 2))
((rx_1_22 8))
((ry_1_22 2))
((rx_1_23 8))
((ry_1_23 2))
((rx_1_24 11))
((ry_1_24 2))
((rx_1_25 11))
((ry_1_25 2))
((rx_1_26 11))
((ry_1_26 2))
((rechassigned_1_1 0))
((rechassigned_1_2 0))
((rechassigned_1_3 0))
((rechassigned_1_4 0))
((rechassigned_1_5 0))
((rechassigned_1_6 0))
((rechassigned_1_7 0))
((rechassigned_1_8 1))
((rechassigned_1_9 0))
((rechassigned_1_10 0))
((rechassigned_1_11 0))
((rechassigned_1_12 0))
((rechassigned_1_13 0))
((rechassigned_1_14 0))
((rechassigned_1_15 0))
((rechassigned_1_16 0))
((rechassigned_1_17 0))
((rechassigned_1_18 1))
((rechassigned_1_19 0))
((rechassigned_1_20 0))
((rechassigned_1_21 1))
((rechassigned_1_22 1))
((rechassigned_1_23 0))
((rechassigned_1_24 0))
((rechassigned_1_25 0))
((rechassigned_1_26 0))
((rechassigned_2_1 0))
((rechassigned_2_2 0))
((rechassigned_2_3 0))
((rechassigned_2_4 0))
((rechassigned_2_5 0))
((rechassigned_2_6 0))
((rechassigned_2_7 0))
((rechassigned_2_8 0))
((rechassigned_2_9 0))
((rechassigned_2_10 0))
((rechassigned_2_11 0))
((rechassigned_2_12 0))
((rechassigned_2_13 1))
((rechassigned_2_14 0))
((rechassigned_2_15 0))
((rechassigned_2_16 0))
((rechassigned_2_17 0))
((rechassigned_2_18 0))
((rechassigned_2_19 0))
((rechassigned_2_20 0))
((rechassigned_2_21 0))
((rechassigned_2_22 0))
((rechassigned_2_23 0))
((rechassigned_2_24 1))
((rechassigned_2_25 1))
((rechassigned_2_26 0))
((total_rcost 0))
((lastrech_1_20 false))
((lastrech_1_21 true))
((lastrech_1_22 false))
((lastrech_1_23 false))
((lastrech_1_24 false))
((lastrech_2_20 false))
((lastrech_2_21 false))
((lastrech_2_22 false))
((lastrech_2_23 false))
((lastrech_2_24 true))
